Nodes = {"N1", "N2", "N3", "N4", "N5", "N6", "N7", "N8", "N9", "N10", "N11", "N12", "N13", "N14", "N15", "N16"};
Arcs = {<"N1","N2",32,0>, <"N1","N3",32,223>, <"N1","N4",32,187>, <"N1","N5",32,0>, <"N1","N6",32,0>, <"N1","N7",32,0>, <"N1","N8",32,0>, <"N1","N9",32,225>, <"N1","N10",32,352>, <"N1","N11",32,307>, <"N1","N12",32,0>, <"N1","N13",32,0>, <"N1","N14",32,391>, <"N1","N15",32,0>, <"N1","N16",32,305>, <"N2","N1",32,0>, <"N2","N3",32,324>, <"N2","N4",32,326>, <"N2","N5",32,0>, <"N2","N6",32,0>, <"N2","N7",32,262>, <"N2","N8",32,249>, <"N2","N9",32,394>, <"N2","N10",32,518>, <"N2","N11",32,451>, <"N2","N12",32,0>, <"N2","N13",32,0>, <"N2","N14",32,549>, <"N2","N15",32,0>, <"N2","N16",32,473>, <"N3","N1",32,223>, <"N3","N2",32,324>, <"N3","N4",32,0>, <"N3","N5",32,371>, <"N3","N6",32,0>, <"N3","N7",32,0>, <"N3","N8",32,0>, <"N3","N9",32,270>, <"N3","N10",32,291>, <"N3","N11",32,0>, <"N3","N12",32,485>, <"N3","N13",32,565>, <"N3","N14",32,467>, <"N3","N15",32,407>, <"N3","N16",32,337>, <"N4","N1",32,187>, <"N4","N2",32,326>, <"N4","N3",32,0>, <"N4","N5",32,321>, <"N4","N6",32,207>, <"N4","N7",32,0>, <"N4","N8",32,0>, <"N4","N9",32,0>, <"N4","N10",32,0>, <"N4","N11",32,0>, <"N4","N12",32,458>, <"N4","N13",32,501>, <"N4","N14",32,384>, <"N4","N15",32,331>, <"N4","N16",32,255>, <"N5","N1",32,0>, <"N5","N2",32,0>, <"N5","N3",32,371>, <"N5","N4",32,321>, <"N5","N6",32,276>, <"N5","N7",32,177>, <"N5","N8",32,288>, <"N5","N9",32,271>, <"N5","N10",32,426>, <"N5","N11",32,427>, <"N5","N12",32,0>, <"N5","N13",32,0>, <"N5","N14",32,367>, <"N5","N15",32,0>, <"N5","N16",32,333>, <"N6","N1",32,0>, <"N6","N2",32,0>, <"N6","N3",32,0>, <"N6","N4",32,207>, <"N6","N5",32,276>, <"N6","N7",32,0>, <"N6","N8",32,0>, <"N6","N9",32,334>, <"N6","N10",32,424>, <"N6","N11",32,327>, <"N6","N12",32,334>, <"N6","N13",32,489>, <"N6","N14",32,520>, <"N6","N15",32,395>, <"N6","N16",32,416>, <"N7","N1",32,0>, <"N7","N2",32,262>, <"N7","N3",32,0>, <"N7","N4",32,0>, <"N7","N5",32,177>, <"N7","N6",32,0>, <"N7","N8",32,0>, <"N7","N9",32,0>, <"N7","N10",32,0>, <"N7","N11",32,250>, <"N7","N12",32,0>, <"N7","N13",32,0>, <"N7","N14",32,0>, <"N7","N15",32,0>, <"N7","N16",32,213>, <"N8","N1",32,0>, <"N8","N2",32,249>, <"N8","N3",32,0>, <"N8","N4",32,0>, <"N8","N5",32,288>, <"N8","N6",32,0>, <"N8","N7",32,0>, <"N8","N9",32,237>, <"N8","N10",32,305>, <"N8","N11",32,206>, <"N8","N12",32,401>, <"N8","N13",32,488>, <"N8","N14",32,434>, <"N8","N15",32,345>, <"N8","N16",32,315>, <"N9","N1",32,225>, <"N9","N2",32,394>, <"N9","N3",32,270>, <"N9","N4",32,0>, <"N9","N5",32,271>, <"N9","N6",32,334>, <"N9","N7",32,0>, <"N9","N8",32,237>, <"N9","N10",32,0>, <"N9","N11",32,0>, <"N9","N12",32,445>, <"N9","N13",32,381>, <"N9","N14",32,0>, <"N9","N15",32,0>, <"N9","N16",32,0>, <"N10","N1",32,352>, <"N10","N2",32,518>, <"N10","N3",32,291>, <"N10","N4",32,0>, <"N10","N5",32,426>, <"N10","N6",32,424>, <"N10","N7",32,0>, <"N10","N8",32,305>, <"N10","N9",32,0>, <"N10","N11",32,0>, <"N10","N12",32,597>, <"N10","N13",32,531>, <"N10","N14",32,0>, <"N10","N15",32,0>, <"N10","N16",32,135>, <"N11","N1",32,307>, <"N11","N2",32,451>, <"N11","N3",32,0>, <"N11","N4",32,0>, <"N11","N5",32,427>, <"N11","N6",32,327>, <"N11","N7",32,250>, <"N11","N8",32,206>, <"N11","N9",32,0>, <"N11","N10",32,0>, <"N11","N12",32,576>, <"N11","N13",32,583>, <"N11","N14",32,382>, <"N11","N15",32,389>, <"N11","N16",32,248>, <"N12","N1",32,0>, <"N12","N2",32,0>, <"N12","N3",32,485>, <"N12","N4",32,458>, <"N12","N5",32,0>, <"N12","N6",32,334>, <"N12","N7",32,0>, <"N12","N8",32,401>, <"N12","N9",32,445>, <"N12","N10",32,597>, <"N12","N11",32,576>, <"N12","N13",32,0>, <"N12","N14",32,535>, <"N12","N15",32,0>, <"N12","N16",32,508>, <"N13","N1",32,0>, <"N13","N2",32,0>, <"N13","N3",32,565>, <"N13","N4",32,501>, <"N13","N5",32,0>, <"N13","N6",32,489>, <"N13","N7",32,0>, <"N13","N8",32,488>, <"N13","N9",32,381>, <"N13","N10",32,531>, <"N13","N11",32,583>, <"N13","N12",32,0>, <"N13","N14",32,0>, <"N13","N15",32,0>, <"N13","N16",32,403>, <"N14","N1",32,391>, <"N14","N2",32,549>, <"N14","N3",32,467>, <"N14","N4",32,384>, <"N14","N5",32,367>, <"N14","N6",32,520>, <"N14","N7",32,0>, <"N14","N8",32,434>, <"N14","N9",32,0>, <"N14","N10",32,0>, <"N14","N11",32,382>, <"N14","N12",32,535>, <"N14","N13",32,0>, <"N14","N15",32,0>, <"N14","N16",32,0>, <"N15","N1",32,0>, <"N15","N2",32,0>, <"N15","N3",32,407>, <"N15","N4",32,331>, <"N15","N5",32,0>, <"N15","N6",32,395>, <"N15","N7",32,0>, <"N15","N8",32,345>, <"N15","N9",32,0>, <"N15","N10",32,0>, <"N15","N11",32,389>, <"N15","N12",32,0>, <"N15","N13",32,0>, <"N15","N14",32,0>, <"N15","N16",32,196>, <"N16","N1",32,305>, <"N16","N2",32,473>, <"N16","N3",32,337>, <"N16","N4",32,255>, <"N16","N5",32,333>, <"N16","N6",32,416>, <"N16","N7",32,213>, <"N16","N8",32,315>, <"N16","N9",32,0>, <"N16","N10",32,135>, <"N16","N11",32,248>, <"N16","N12",32,508>, <"N16","N13",32,403>, <"N16","N14",32,0>, <"N16","N15",32,196>};
Demands = {<"N1","N2",2,0>, <"N1","N3",4,0>, <"N1","N4",6,0>, <"N1","N5",8,0>, <"N1","N6",10,0>, <"N1","N7",12,0>, <"N1","N8",14,0>, <"N1","N9",16,0>, <"N1","N10",18,0>, <"N1","N11",20,0>, <"N1","N12",22,0>, <"N1","N13",24,0>, <"N1","N14",26,0>, <"N1","N15",28,0>, <"N1","N16",30,0>, <"N2","N1",2,0>, <"N2","N3",2,0>, <"N2","N4",4,0>, <"N2","N5",6,0>, <"N2","N6",8,0>, <"N2","N7",10,0>, <"N2","N8",12,0>, <"N2","N9",14,0>, <"N2","N10",16,0>, <"N2","N11",18,0>, <"N2","N12",20,0>, <"N2","N13",22,0>, <"N2","N14",24,0>, <"N2","N15",26,0>, <"N2","N16",28,0>, <"N3","N1",4,0>, <"N3","N2",2,0>, <"N3","N4",2,0>, <"N3","N5",4,0>, <"N3","N6",6,0>, <"N3","N7",8,0>, <"N3","N8",10,0>, <"N3","N9",12,0>, <"N3","N10",14,0>, <"N3","N11",16,0>, <"N3","N12",18,0>, <"N3","N13",20,0>, <"N3","N14",22,0>, <"N3","N15",24,0>, <"N3","N16",26,0>, <"N4","N1",6,0>, <"N4","N2",4,0>, <"N4","N3",2,0>, <"N4","N5",2,0>, <"N4","N6",4,0>, <"N4","N7",6,0>, <"N4","N8",8,0>, <"N4","N9",10,0>, <"N4","N10",12,0>, <"N4","N11",14,0>, <"N4","N12",16,0>, <"N4","N13",18,0>, <"N4","N14",20,0>, <"N4","N15",22,0>, <"N4","N16",24,0>, <"N5","N1",8,0>, <"N5","N2",6,0>, <"N5","N3",4,0>, <"N5","N4",2,0>, <"N5","N6",2,0>, <"N5","N7",4,0>, <"N5","N8",6,0>, <"N5","N9",8,0>, <"N5","N10",10,0>, <"N5","N11",12,0>, <"N5","N12",14,0>, <"N5","N13",16,0>, <"N5","N14",18,0>, <"N5","N15",20,0>, <"N5","N16",22,0>, <"N6","N1",10,0>, <"N6","N2",8,0>, <"N6","N3",6,0>, <"N6","N4",4,0>, <"N6","N5",2,0>, <"N6","N7",2,0>, <"N6","N8",4,0>, <"N6","N9",6,0>, <"N6","N10",8,0>, <"N6","N11",10,0>, <"N6","N12",12,0>, <"N6","N13",14,0>, <"N6","N14",16,0>, <"N6","N15",18,0>, <"N6","N16",20,0>, <"N7","N1",12,0>, <"N7","N2",10,0>, <"N7","N3",8,0>, <"N7","N4",6,0>, <"N7","N5",4,0>, <"N7","N6",2,0>, <"N7","N8",2,0>, <"N7","N9",4,0>, <"N7","N10",6,0>, <"N7","N11",8,0>, <"N7","N12",10,0>, <"N7","N13",12,0>, <"N7","N14",14,0>, <"N7","N15",16,0>, <"N7","N16",18,0>, <"N8","N1",14,0>, <"N8","N2",12,0>, <"N8","N3",10,0>, <"N8","N4",8,0>, <"N8","N5",6,0>, <"N8","N6",4,0>, <"N8","N7",2,0>, <"N8","N9",2,0>, <"N8","N10",4,0>, <"N8","N11",6,0>, <"N8","N12",8,0>, <"N8","N13",10,0>, <"N8","N14",12,0>, <"N8","N15",14,0>, <"N8","N16",16,0>, <"N9","N1",16,0>, <"N9","N2",14,0>, <"N9","N3",12,0>, <"N9","N4",10,0>, <"N9","N5",8,0>, <"N9","N6",6,0>, <"N9","N7",4,0>, <"N9","N8",2,0>, <"N9","N10",2,0>, <"N9","N11",4,0>, <"N9","N12",6,0>, <"N9","N13",8,0>, <"N9","N14",10,0>, <"N9","N15",12,0>, <"N9","N16",14,0>, <"N10","N1",18,0>, <"N10","N2",16,0>, <"N10","N3",14,0>, <"N10","N4",12,0>, <"N10","N5",10,0>, <"N10","N6",8,0>, <"N10","N7",6,0>, <"N10","N8",4,0>, <"N10","N9",2,0>, <"N10","N11",2,0>, <"N10","N12",4,0>, <"N10","N13",6,0>, <"N10","N14",8,0>, <"N10","N15",10,0>, <"N10","N16",12,0>, <"N11","N1",20,0>, <"N11","N2",18,0>, <"N11","N3",16,0>, <"N11","N4",14,0>, <"N11","N5",12,0>, <"N11","N6",10,0>, <"N11","N7",8,0>, <"N11","N8",6,0>, <"N11","N9",4,0>, <"N11","N10",2,0>, <"N11","N12",2,0>, <"N11","N13",4,0>, <"N11","N14",6,0>, <"N11","N15",8,0>, <"N11","N16",10,0>, <"N12","N1",22,0>, <"N12","N2",20,0>, <"N12","N3",18,0>, <"N12","N4",16,0>, <"N12","N5",14,0>, <"N12","N6",12,0>, <"N12","N7",10,0>, <"N12","N8",8,0>, <"N12","N9",6,0>, <"N12","N10",4,0>, <"N12","N11",2,0>, <"N12","N13",2,0>, <"N12","N14",4,0>, <"N12","N15",6,0>, <"N12","N16",8,0>, <"N13","N1",24,0>, <"N13","N2",22,0>, <"N13","N3",20,0>, <"N13","N4",18,0>, <"N13","N5",16,0>, <"N13","N6",14,0>, <"N13","N7",12,0>, <"N13","N8",10,0>, <"N13","N9",8,0>, <"N13","N10",6,0>, <"N13","N11",4,0>, <"N13","N12",2,0>, <"N13","N14",2,0>, <"N13","N15",4,0>, <"N13","N16",6,0>, <"N14","N1",26,0>, <"N14","N2",24,0>, <"N14","N3",22,0>, <"N14","N4",20,0>, <"N14","N5",18,0>, <"N14","N6",16,0>, <"N14","N7",14,0>, <"N14","N8",12,0>, <"N14","N9",10,0>, <"N14","N10",8,0>, <"N14","N11",6,0>, <"N14","N12",4,0>, <"N14","N13",2,0>, <"N14","N15",2,0>, <"N14","N16",4,0>, <"N15","N1",28,0>, <"N15","N2",26,0>, <"N15","N3",24,0>, <"N15","N4",22,0>, <"N15","N5",20,0>, <"N15","N6",18,0>, <"N15","N7",16,0>, <"N15","N8",14,0>, <"N15","N9",12,0>, <"N15","N10",10,0>, <"N15","N11",8,0>, <"N15","N12",6,0>, <"N15","N13",4,0>, <"N15","N14",2,0>, <"N15","N16",2,0>, <"N16","N1",30,0>, <"N16","N2",28,0>, <"N16","N3",26,0>, <"N16","N4",24,0>, <"N16","N5",22,0>, <"N16","N6",20,0>, <"N16","N7",18,0>, <"N16","N8",16,0>, <"N16","N9",14,0>, <"N16","N10",12,0>, <"N16","N11",10,0>, <"N16","N12",8,0>, <"N16","N13",6,0>, <"N16","N14",4,0>, <"N16","N15",2,0>};
